17
0
22
0
24
20
0
0
17
25
25
13
25
21
24
24
15
0
13
0
20
17
27
29
28
17
0
0
0
15
0
17
29
0
19
21
31
0
14
22
22
43
11
16
15
18
14
14
12
0
0
16
20
38
19
17
12
14
0
41
17
0
0
75
15
33
12
19
24
13
16
0
43
20
0
56
0
26
0
0
23
0
17
14
24
28
15
0
16
33
20
33
0
0
19
0
16
16
22
0
